(declare-fun var0 () String)
(declare-fun var1 () String)
(declare-fun var2 () String)
(declare-fun var3 () String)
(declare-fun var4 () String)
(declare-fun var5 () String)
(declare-fun var6 () String)
(assert (= var0 (str.++ "H:Urj" (str.++ var1 (str.++ var2 (str.++ var3 ""))))))
(assert (= var0 (str.++ "e|J0i" (str.++ var4 (str.++ var5 (str.++ var6 ""))))))
(check-sat)